46
25
0 25 26 27 28 31 32 34 35 36 37 39 41 43 45
1 25 31 32 35 36 39 42 43 45
2 25 26 27 29 32 38 42 45
3 26 27 30 31 34 36 39 41 45
4 25 31 32 35 38 39 42 43 45
5 25 31 32 33 34 35 38 39 42 43 45
6 25 26 30 31 32 35 36 43
7 25 26 28 29 31 36 39 43
8 25 27 29 33 42 45
9 25 26 28 34 35 36 38 45
10 25 26 27 28 30 31 32 35 37 41 43 45
11 27 31 33 35 41 42
12 28 29 30 32 33 34 37 42 43
13 26 27 31 32 33 35 36 40 42
14 26 27 34 35 36 38 39 43 45
15 27 34 35 37 42 44 45
16 30 31 34 37 39 42 44
17 25
18 30 37 41 44
19 26 27 30 36
20 28 30 31 34 37 43
21 28 36 41 43 44
22 25 28 39
23 31 32 45
24
